10991.91,55.33,68.64
9334.61,65.16,80.83
10596.84,57.4,71.2
10343.69,58.8,72.94
10639.31,57.17,70.92
10400.42,58.48,72.54
10279.66,59.17,73.4
10535.84,57.73,71.61
9730.35,62.51,77.54
10362.46,58.69,72.81
10497.25,57.94,71.87
8949.94,67.96,84.3
10490.46,57.98,71.92
8493.75,71.61,88.83
9793.19,62.11,77.04
10002.5,60.81,75.43
9762.26,62.3,77.29
9995.88,60.85,75.48
9573.4,63.53,78.81
9888.68,61.51,76.3
